c CNF
c from Selman's wff generator
p cnf 200  1400
1.0 -12 -30 0
1.0 26 48 0
1.0 73 -54 0
1.0 -25 -196 0
1.0 -171 -76 0
1.0 91 -27 0
1.0 -19 -7 0
1.0 126 -54 0
1.0 83 -84 0
1.0 -131 129 0
1.0 -183 5 0
1.0 -200 -67 0
1.0 -143 49 0
1.0 -76 171 0
1.0 177 -125 0
1.0 179 154 0
1.0 -37 -135 0
1.0 -64 105 0
1.0 110 -135 0
1.0 2 -190 0
1.0 -39 -181 0
1.0 151 -138 0
1.0 63 72 0
1.0 -25 70 0
1.0 5 71 0
1.0 -176 197 0
1.0 -132 -169 0
1.0 159 -73 0
1.0 -54 56 0
1.0 -194 118 0
1.0 190 162 0
1.0 31 199 0
1.0 -70 104 0
1.0 -100 18 0
1.0 -187 -123 0
1.0 -196 42 0
1.0 98 54 0
1.0 -171 -185 0
1.0 -147 -43 0
1.0 41 -51 0
1.0 -154 116 0
1.0 134 -83 0
1.0 6 49 0
1.0 91 -9 0
1.0 62 102 0
1.0 -87 24 0
1.0 66 -168 0
1.0 18 -23 0
1.0 139 169 0
1.0 -52 108 0
1.0 157 58 0
1.0 66 -106 0
1.0 -8 113 0
1.0 -136 152 0
1.0 -119 -138 0
1.0 -161 122 0
1.0 -91 -131 0
1.0 -39 -162 0
1.0 20 55 0
1.0 161 -76 0
1.0 189 -171 0
1.0 -122 190 0
1.0 -127 32 0
1.0 -153 83 0
1.0 -14 156 0
1.0 118 -184 0
1.0 38 -88 0
1.0 -164 -33 0
1.0 3 -29 0
1.0 -18 -200 0
1.0 32 -140 0
1.0 23 17 0
1.0 172 13 0
1.0 196 135 0
1.0 22 -47 0
1.0 -79 199 0
1.0 28 13 0
1.0 -13 168 0
1.0 108 -21 0
1.0 -38 56 0
1.0 68 55 0
1.0 189 124 0
1.0 -171 128 0
1.0 -127 -133 0
1.0 -146 -134 0
1.0 102 188 0
1.0 -9 30 0
1.0 85 -106 0
1.0 160 -154 0
1.0 -77 111 0
1.0 39 -154 0
1.0 -86 26 0
1.0 -159 117 0
1.0 104 -190 0
1.0 -19 -8 0
1.0 113 14 0
1.0 167 69 0
1.0 179 178 0
1.0 -132 187 0
1.0 12 -99 0
1.0 15 -36 0
1.0 26 99 0
1.0 -106 190 0
1.0 3 -2 0
1.0 71 112 0
1.0 90 103 0
1.0 89 -47 0
1.0 146 -85 0
1.0 120 -100 0
1.0 -199 -111 0
1.0 -100 -137 0
1.0 138 14 0
1.0 125 85 0
1.0 188 123 0
1.0 -170 -72 0
1.0 156 47 0
1.0 147 -155 0
1.0 65 -10 0
1.0 147 171 0
1.0 185 -140 0
1.0 -24 149 0
1.0 72 158 0
1.0 -29 -64 0
1.0 110 30 0
1.0 -185 80 0
1.0 90 48 0
1.0 -19 80 0
1.0 -19 12 0
1.0 161 36 0
1.0 193 141 0
1.0 4 -28 0
1.0 -58 65 0
1.0 145 168 0
1.0 16 103 0
1.0 183 189 0
1.0 1 -150 0
1.0 -186 -98 0
1.0 -38 67 0
1.0 -94 -6 0
1.0 -70 121 0
1.0 89 -84 0
1.0 -187 -117 0
1.0 -106 -176 0
1.0 126 -15 0
1.0 112 -61 0
1.0 -127 90 0
1.0 -95 -143 0
1.0 -63 -166 0
1.0 50 26 0
1.0 143 194 0
1.0 -169 175 0
1.0 189 20 0
1.0 81 96 0
1.0 186 37 0
1.0 180 1 0
1.0 -166 23 0
1.0 -49 51 0
1.0 55 38 0
1.0 191 105 0
1.0 111 116 0
1.0 -164 98 0
1.0 -126 -71 0
1.0 115 -22 0
1.0 -15 107 0
1.0 -157 176 0
1.0 13 115 0
1.0 20 -57 0
1.0 -173 -103 0
1.0 -1 -127 0
1.0 198 -117 0
1.0 139 -143 0
1.0 50 35 0
1.0 10 121 0
1.0 35 58 0
1.0 -114 37 0
1.0 140 -119 0
1.0 46 159 0
1.0 -75 117 0
1.0 -60 -4 0
1.0 -38 183 0
1.0 103 -134 0
1.0 -191 -94 0
1.0 -131 175 0
1.0 94 -12 0
1.0 -170 76 0
1.0 193 136 0
1.0 -139 -24 0
1.0 7 -76 0
1.0 10 -92 0
1.0 -186 -39 0
1.0 -14 -94 0
1.0 105 197 0
1.0 -72 28 0
1.0 -163 -176 0
1.0 200 76 0
1.0 -152 -99 0
1.0 -191 -163 0
1.0 2 64 0
1.0 -157 78 0
1.0 -75 -168 0
1.0 195 -53 0
1.0 29 126 0
1.0 2 -133 0
1.0 -32 150 0
1.0 -113 -75 0
1.0 -139 89 0
1.0 -167 50 0
1.0 -18 92 0
1.0 -145 -198 0
1.0 124 -27 0
1.0 159 -36 0
1.0 186 193 0
1.0 68 10 0
1.0 -98 139 0
1.0 -189 59 0
1.0 150 94 0
1.0 91 187 0
1.0 -13 -68 0
1.0 -103 18 0
1.0 -11 174 0
1.0 183 196 0
1.0 -134 -186 0
1.0 -44 -51 0
1.0 145 -87 0
1.0 -153 50 0
1.0 -189 114 0
1.0 76 10 0
1.0 194 -94 0
1.0 -178 -112 0
1.0 58 -45 0
1.0 171 -200 0
1.0 86 88 0
1.0 137 -189 0
1.0 -102 -181 0
1.0 190 -146 0
1.0 -39 58 0
1.0 -170 95 0
1.0 -139 -185 0
1.0 184 187 0
1.0 -74 71 0
1.0 -59 -166 0
1.0 -147 -65 0
1.0 -10 164 0
1.0 21 -91 0
1.0 186 -43 0
1.0 27 152 0
1.0 139 59 0
1.0 129 -187 0
1.0 -153 157 0
1.0 21 85 0
1.0 48 154 0
1.0 45 142 0
1.0 -184 76 0
1.0 27 -187 0
1.0 -46 -100 0
1.0 -86 200 0
1.0 -156 -107 0
1.0 192 172 0
1.0 -125 -83 0
1.0 -25 165 0
1.0 41 152 0
1.0 139 -38 0
1.0 -137 10 0
1.0 9 -118 0
1.0 -25 199 0
1.0 170 145 0
1.0 27 161 0
1.0 126 -62 0
1.0 14 -77 0
1.0 -115 66 0
1.0 76 93 0
1.0 11 135 0
1.0 133 -188 0
1.0 -132 -104 0
1.0 64 -62 0
1.0 -124 -67 0
1.0 144 188 0
1.0 -53 -25 0
1.0 118 -182 0
1.0 -116 61 0
1.0 -48 -12 0
1.0 -116 -149 0
1.0 -11 -145 0
1.0 12 -123 0
1.0 111 -159 0
1.0 183 -121 0
1.0 102 104 0
1.0 164 190 0
1.0 -2 -18 0
1.0 166 -127 0
1.0 -72 65 0
1.0 188 180 0
1.0 138 -50 0
1.0 170 153 0
1.0 57 49 0
1.0 38 155 0
1.0 -172 -22 0
1.0 -148 53 0
1.0 -117 -23 0
1.0 2 -140 0
1.0 189 -65 0
1.0 17 82 0
1.0 130 -119 0
1.0 74 125 0
1.0 -146 163 0
1.0 -15 -96 0
1.0 119 -13 0
1.0 152 -39 0
1.0 103 -121 0
1.0 -2 -130 0
1.0 49 -87 0
1.0 -12 -104 0
1.0 66 148 0
1.0 44 -161 0
1.0 174 -48 0
1.0 87 -143 0
1.0 -63 165 0
1.0 -95 -102 0
1.0 189 -93 0
1.0 -197 30 0
1.0 -178 6 0
1.0 -167 -154 0
1.0 2 65 0
1.0 7 131 0
1.0 -96 -185 0
1.0 -87 129 0
1.0 21 197 0
1.0 27 31 0
1.0 36 22 0
1.0 -176 -8 0
1.0 72 8 0
1.0 -139 140 0
1.0 124 82 0
1.0 11 158 0
1.0 155 -160 0
1.0 -190 128 0
1.0 149 -9 0
1.0 -17 171 0
1.0 -179 -164 0
1.0 -103 116 0
1.0 198 176 0
1.0 134 123 0
1.0 82 87 0
1.0 14 -53 0
1.0 62 125 0
1.0 -95 187 0
1.0 -151 133 0
1.0 48 141 0
1.0 116 118 0
1.0 -40 -91 0
1.0 -177 -5 0
1.0 -58 -89 0
1.0 -13 -39 0
1.0 -26 -162 0
1.0 94 -169 0
1.0 110 186 0
1.0 38 -74 0
1.0 -11 189 0
1.0 181 96 0
1.0 48 191 0
1.0 -187 -190 0
1.0 170 -88 0
1.0 117 184 0
1.0 170 73 0
1.0 -147 -120 0
1.0 -108 41 0
1.0 -136 -44 0
1.0 35 40 0
1.0 -29 -181 0
1.0 -68 -12 0
1.0 195 -184 0
1.0 -57 64 0
1.0 -183 107 0
1.0 -147 131 0
1.0 175 135 0
1.0 175 134 0
1.0 115 -200 0
1.0 -11 138 0
1.0 -121 -177 0
1.0 -41 139 0
1.0 -46 -139 0
1.0 69 91 0
1.0 26 -138 0
1.0 72 -83 0
1.0 -83 4 0
1.0 141 135 0
1.0 111 -66 0
1.0 -5 17 0
1.0 155 87 0
1.0 177 115 0
1.0 53 -120 0
1.0 -3 5 0
1.0 -8 -77 0
1.0 11 -75 0
1.0 141 -46 0
1.0 -63 46 0
1.0 133 -36 0
1.0 -150 108 0
1.0 -28 113 0
1.0 -117 -34 0
1.0 111 -93 0
1.0 167 -80 0
1.0 126 -114 0
1.0 160 47 0
1.0 82 46 0
1.0 153 -113 0
1.0 26 -159 0
1.0 193 -125 0
1.0 17 -138 0
1.0 18 -65 0
1.0 -179 -143 0
1.0 190 136 0
1.0 -181 -32 0
1.0 -144 -136 0
1.0 -95 123 0
1.0 -48 178 0
1.0 116 -12 0
1.0 77 138 0
1.0 -81 7 0
1.0 -142 -24 0
1.0 56 -44 0
1.0 -180 168 0
1.0 -91 -80 0
1.0 58 -149 0
1.0 -161 49 0
1.0 187 182 0
1.0 -189 -85 0
1.0 109 -79 0
1.0 -123 -107 0
1.0 -75 -132 0
1.0 -12 136 0
1.0 85 105 0
1.0 154 -148 0
1.0 130 -173 0
1.0 58 -145 0
1.0 -23 -99 0
1.0 5 92 0
1.0 24 22 0
1.0 -158 147 0
1.0 52 145 0
1.0 -93 169 0
1.0 -142 -152 0
1.0 -97 -186 0
1.0 84 94 0
1.0 -186 110 0
1.0 131 11 0
1.0 -158 147 0
1.0 92 -18 0
1.0 186 -157 0
1.0 -109 145 0
1.0 -130 91 0
1.0 -184 -187 0
1.0 -96 69 0
1.0 -80 22 0
1.0 169 46 0
1.0 63 57 0
1.0 -14 -50 0
1.0 -194 -102 0
1.0 -192 -51 0
1.0 -37 -38 0
1.0 -107 -123 0
1.0 144 -74 0
1.0 -119 -66 0
1.0 123 -16 0
1.0 66 4 0
1.0 -106 186 0
1.0 36 119 0
1.0 157 18 0
1.0 140 164 0
1.0 -37 -70 0
1.0 -136 168 0
1.0 -183 166 0
1.0 -170 53 0
1.0 -38 89 0
1.0 -7 -45 0
1.0 62 149 0
1.0 113 -75 0
1.0 -144 81 0
1.0 -48 42 0
1.0 8 -131 0
1.0 184 185 0
1.0 73 26 0
1.0 70 -38 0
1.0 -187 69 0
1.0 143 19 0
1.0 -99 -153 0
1.0 -195 103 0
1.0 -34 56 0
1.0 40 -34 0
1.0 -59 -130 0
1.0 168 -34 0
1.0 102 193 0
1.0 -11 -101 0
1.0 54 96 0
1.0 199 34 0
1.0 89 -32 0
1.0 65 -86 0
1.0 16 -32 0
1.0 -65 -112 0
1.0 105 -190 0
1.0 91 -141 0
1.0 -36 82 0
1.0 116 42 0
1.0 -73 -115 0
1.0 200 173 0
1.0 -4 113 0
1.0 25 -135 0
1.0 124 45 0
1.0 -185 69 0
1.0 151 149 0
1.0 190 120 0
1.0 -35 3 0
1.0 175 -61 0
1.0 174 -46 0
1.0 -180 -82 0
1.0 -126 -170 0
1.0 -38 -75 0
1.0 23 186 0
1.0 106 -124 0
1.0 -126 -75 0
1.0 136 -21 0
1.0 -67 126 0
1.0 -8 -34 0
1.0 3 68 0
1.0 143 -174 0
1.0 -160 83 0
1.0 6 -53 0
1.0 128 176 0
1.0 -197 112 0
1.0 -38 80 0
1.0 -113 -60 0
1.0 -128 21 0
1.0 195 -185 0
1.0 67 12 0
1.0 65 -21 0
1.0 197 -36 0
1.0 148 -28 0
1.0 107 167 0
1.0 -26 -7 0
1.0 27 91 0
1.0 -75 -57 0
1.0 69 -192 0
1.0 -12 17 0
1.0 53 -179 0
1.0 -7 -58 0
1.0 -25 14 0
1.0 21 68 0
1.0 158 26 0
1.0 -83 -43 0
1.0 34 186 0
1.0 2 7 0
1.0 186 -55 0
1.0 -113 -39 0
1.0 -53 38 0
1.0 -105 191 0
1.0 17 188 0
1.0 30 66 0
1.0 -51 132 0
1.0 -138 -162 0
1.0 -17 -161 0
1.0 199 19 0
1.0 -56 -55 0
1.0 45 43 0
1.0 -31 115 0
1.0 -181 9 0
1.0 141 31 0
1.0 193 191 0
1.0 -152 -115 0
1.0 133 -6 0
1.0 -60 -125 0
1.0 -168 -170 0
1.0 85 126 0
1.0 134 180 0
1.0 -10 181 0
1.0 172 -152 0
1.0 67 -151 0
1.0 -156 75 0
1.0 -199 -137 0
1.0 -107 -85 0
1.0 10 -20 0
1.0 199 153 0
1.0 134 -169 0
1.0 121 -23 0
1.0 -173 -102 0
1.0 -176 -175 0
1.0 -111 62 0
1.0 147 -103 0
1.0 122 -64 0
1.0 -17 -116 0
1.0 85 141 0
1.0 -163 -83 0
1.0 184 -179 0
1.0 -153 7 0
1.0 69 73 0
1.0 -175 87 0
1.0 151 -69 0
1.0 -185 147 0
1.0 87 171 0
1.0 -53 66 0
1.0 -44 -49 0
1.0 56 -129 0
1.0 -2 -138 0
1.0 25 -110 0
1.0 -179 -90 0
1.0 36 -57 0
1.0 -27 105 0
1.0 -170 156 0
1.0 5 112 0
1.0 -40 67 0
1.0 5 125 0
1.0 35 90 0
1.0 -179 144 0
1.0 -1 8 0
1.0 -112 107 0
1.0 63 22 0
1.0 -133 -104 0
1.0 170 -112 0
1.0 37 32 0
1.0 122 6 0
1.0 -149 -59 0
1.0 -66 -51 0
1.0 157 82 0
1.0 104 154 0
1.0 57 14 0
1.0 125 -23 0
1.0 55 -3 0
1.0 8 -115 0
1.0 -174 190 0
1.0 40 -82 0
1.0 164 77 0
1.0 -30 102 0
1.0 -115 112 0
1.0 135 -114 0
1.0 -116 -33 0
1.0 148 -39 0
1.0 -29 186 0
1.0 67 178 0
1.0 55 81 0
1.0 -183 199 0
1.0 -110 84 0
1.0 197 -139 0
1.0 171 -196 0
1.0 35 117 0
1.0 -102 -1 0
1.0 -179 196 0
1.0 -76 95 0
1.0 -94 88 0
1.0 171 -92 0
1.0 30 80 0
1.0 -76 -117 0
1.0 -33 -159 0
1.0 -159 -105 0
1.0 -100 -102 0
1.0 197 86 0
1.0 174 -187 0
1.0 -79 -141 0
1.0 -21 193 0
1.0 109 -27 0
1.0 186 -181 0
1.0 85 -179 0
1.0 -80 51 0
1.0 -137 -191 0
1.0 178 59 0
1.0 -200 165 0
1.0 -158 72 0
1.0 99 123 0
1.0 103 -84 0
1.0 -62 -109 0
1.0 160 131 0
1.0 122 184 0
1.0 -43 58 0
1.0 23 -118 0
1.0 190 178 0
1.0 -101 54 0
1.0 -137 -200 0
1.0 -109 162 0
1.0 -93 158 0
1.0 -142 -168 0
1.0 26 67 0
1.0 185 -87 0
1.0 65 -75 0
1.0 -128 34 0
1.0 33 -158 0
1.0 120 3 0
1.0 161 -171 0
1.0 139 -137 0
1.0 4 -112 0
1.0 -199 40 0
1.0 114 24 0
1.0 -57 194 0
1.0 152 169 0
1.0 172 -38 0
1.0 9 -108 0
1.0 -45 121 0
1.0 33 122 0
1.0 162 198 0
1.0 -22 119 0
1.0 -113 23 0
1.0 -191 -198 0
1.0 36 18 0
1.0 -126 -129 0
1.0 50 102 0
1.0 -23 -55 0
1.0 53 5 0
1.0 -123 176 0
1.0 199 -121 0
1.0 -119 -33 0
1.0 -51 -46 0
1.0 -174 191 0
1.0 -92 -164 0
1.0 19 17 0
1.0 -21 -158 0
1.0 -134 -98 0
1.0 -19 -77 0
1.0 109 -72 0
1.0 -117 90 0
1.0 -80 114 0
1.0 19 85 0
1.0 183 -134 0
1.0 79 -200 0
1.0 -178 5 0
1.0 -126 -131 0
1.0 -22 -121 0
1.0 -55 -4 0
1.0 -117 -163 0
1.0 -48 41 0
1.0 -174 28 0
1.0 27 45 0
1.0 49 -24 0
1.0 -155 -20 0
1.0 141 -84 0
1.0 -87 79 0
1.0 -42 109 0
1.0 -149 -111 0
1.0 -138 -90 0
1.0 -134 -4 0
1.0 -28 -25 0
1.0 -45 -128 0
1.0 -11 45 0
1.0 -124 -111 0
1.0 19 -41 0
1.0 151 173 0
1.0 63 -66 0
1.0 -70 19 0
1.0 44 136 0
1.0 63 35 0
1.0 -80 53 0
1.0 -164 -72 0
1.0 -112 21 0
1.0 -194 40 0
1.0 106 -1 0
1.0 20 30 0
1.0 -166 150 0
1.0 -185 23 0
1.0 76 72 0
1.0 144 34 0
1.0 -54 171 0
1.0 -10 -68 0
1.0 69 155 0
1.0 -185 -163 0
1.0 -112 100 0
1.0 -123 -79 0
1.0 151 26 0
1.0 -59 -58 0
1.0 -28 68 0
1.0 -136 62 0
1.0 17 44 0
1.0 -6 -40 0
1.0 140 127 0
1.0 6 -173 0
1.0 199 98 0
1.0 -156 -200 0
1.0 68 128 0
1.0 190 175 0
1.0 19 97 0
1.0 -137 157 0
1.0 -84 156 0
1.0 129 -200 0
1.0 -98 94 0
1.0 93 -152 0
1.0 -80 58 0
1.0 32 170 0
1.0 67 82 0
1.0 38 -16 0
1.0 171 20 0
1.0 19 -53 0
1.0 -147 8 0
1.0 -159 5 0
1.0 -62 163 0
1.0 -133 -183 0
1.0 65 -18 0
1.0 33 83 0
1.0 -102 -32 0
1.0 85 126 0
1.0 134 5 0
1.0 -9 70 0
1.0 -32 -38 0
1.0 -21 108 0
1.0 -125 -167 0
1.0 -49 -9 0
1.0 40 -61 0
1.0 -187 -107 0
1.0 112 -24 0
1.0 -93 -142 0
1.0 180 -155 0
1.0 63 -53 0
1.0 -19 71 0
1.0 79 -105 0
1.0 166 -89 0
1.0 -196 72 0
1.0 -84 27 0
1.0 17 -37 0
1.0 126 -5 0
1.0 -89 -21 0
1.0 166 64 0
1.0 82 -156 0
1.0 -197 -187 0
1.0 59 -73 0
1.0 -99 -124 0
1.0 161 173 0
1.0 178 121 0
1.0 141 -62 0
1.0 -126 63 0
1.0 -18 10 0
1.0 197 144 0
1.0 -17 -18 0
1.0 142 -165 0
1.0 -137 -117 0
1.0 -37 -55 0
1.0 117 5 0
1.0 68 59 0
1.0 69 28 0
1.0 -172 -105 0
1.0 -123 118 0
1.0 -83 133 0
1.0 -50 157 0
1.0 11 -113 0
1.0 -118 -148 0
1.0 6 19 0
1.0 -46 168 0
1.0 72 -60 0
1.0 177 107 0
1.0 39 26 0
1.0 -182 -11 0
1.0 -124 39 0
1.0 186 -89 0
1.0 108 -95 0
1.0 -62 -4 0
1.0 -63 174 0
1.0 81 -185 0
1.0 10 -177 0
1.0 -188 -182 0
1.0 -20 103 0
1.0 -192 178 0
1.0 72 -60 0
1.0 64 -22 0
1.0 -196 193 0
1.0 -178 -64 0
1.0 -41 2 0
1.0 -183 162 0
1.0 65 92 0
1.0 -69 -3 0
1.0 63 -7 0
1.0 28 140 0
1.0 133 -16 0
1.0 80 -93 0
1.0 -95 76 0
1.0 38 -87 0
1.0 -178 86 0
1.0 -89 -114 0
1.0 120 -62 0
1.0 -1 -127 0
1.0 143 70 0
1.0 -162 141 0
1.0 -17 88 0
1.0 -175 -12 0
1.0 -98 -116 0
1.0 -30 -187 0
1.0 48 13 0
1.0 -139 68 0
1.0 -137 25 0
1.0 -166 -43 0
1.0 131 -88 0
1.0 100 -193 0
1.0 -108 -55 0
1.0 42 120 0
1.0 -132 183 0
1.0 -51 -118 0
1.0 143 -54 0
1.0 96 40 0
1.0 -127 125 0
1.0 117 187 0
1.0 -42 7 0
1.0 -127 48 0
1.0 -30 107 0
1.0 25 -81 0
1.0 134 152 0
1.0 191 -164 0
1.0 -88 184 0
1.0 170 167 0
1.0 173 190 0
1.0 -37 64 0
1.0 -171 -87 0
1.0 -167 -13 0
1.0 -165 -36 0
1.0 200 183 0
1.0 167 -14 0
1.0 -181 -120 0
1.0 110 -41 0
1.0 104 11 0
1.0 98 160 0
1.0 -173 -31 0
1.0 67 93 0
1.0 -76 162 0
1.0 -176 -44 0
1.0 -164 126 0
1.0 167 162 0
1.0 -172 32 0
1.0 -191 -13 0
1.0 44 -97 0
1.0 -190 191 0
1.0 -152 -127 0
1.0 171 -86 0
1.0 12 -192 0
1.0 154 -26 0
1.0 -58 192 0
1.0 5 126 0
1.0 -23 111 0
1.0 101 132 0
1.0 -59 184 0
1.0 -70 63 0
1.0 55 170 0
1.0 -195 106 0
1.0 98 -126 0
1.0 -52 112 0
1.0 23 -106 0
1.0 -38 162 0
1.0 -145 156 0
1.0 19 87 0
1.0 56 154 0
1.0 -60 -14 0
1.0 140 -2 0
1.0 114 -8 0
1.0 114 -149 0
1.0 110 34 0
1.0 189 171 0
1.0 57 -164 0
1.0 -117 -161 0
1.0 -175 -65 0
1.0 -67 -191 0
1.0 -199 -168 0
1.0 116 173 0
1.0 6 -110 0
1.0 81 -147 0
1.0 111 82 0
1.0 43 12 0
1.0 -77 -135 0
1.0 -126 -35 0
1.0 2 -36 0
1.0 -8 101 0
1.0 11 22 0
1.0 169 10 0
1.0 -92 -78 0
1.0 -90 -108 0
1.0 -43 -80 0
1.0 115 -29 0
1.0 65 130 0
1.0 31 177 0
1.0 -198 -95 0
1.0 105 -161 0
1.0 -38 -149 0
1.0 56 79 0
1.0 159 1 0
1.0 -30 159 0
1.0 -89 -23 0
1.0 -199 -53 0
1.0 -147 93 0
1.0 53 5 0
1.0 154 176 0
1.0 -55 111 0
1.0 111 -174 0
1.0 132 75 0
1.0 -98 200 0
1.0 52 -101 0
1.0 193 54 0
1.0 -58 97 0
1.0 73 -154 0
1.0 -65 -127 0
1.0 -100 26 0
1.0 101 -149 0
1.0 149 -193 0
1.0 -93 187 0
1.0 -40 48 0
1.0 -145 66 0
1.0 -20 129 0
1.0 55 -84 0
1.0 -110 173 0
1.0 122 39 0
1.0 31 -102 0
1.0 88 -68 0
1.0 115 138 0
1.0 3 133 0
1.0 -61 -19 0
1.0 103 163 0
1.0 136 57 0
1.0 -95 -30 0
1.0 132 197 0
1.0 -64 -56 0
1.0 193 -171 0
1.0 104 -113 0
1.0 132 122 0
1.0 85 150 0
1.0 7 -68 0
1.0 98 5 0
1.0 1 75 0
1.0 131 -193 0
1.0 -164 79 0
1.0 192 -135 0
1.0 -57 -110 0
1.0 -60 3 0
1.0 -71 -38 0
1.0 -42 194 0
1.0 -69 -43 0
1.0 -36 -148 0
1.0 27 40 0
1.0 -174 96 0
1.0 -5 97 0
1.0 -99 -131 0
1.0 -169 98 0
1.0 91 -132 0
1.0 -175 158 0
1.0 105 -79 0
1.0 -118 73 0
1.0 -168 -89 0
1.0 185 92 0
1.0 22 -168 0
1.0 -65 -190 0
1.0 -122 51 0
1.0 -9 -72 0
1.0 150 113 0
1.0 -186 -193 0
1.0 -81 80 0
1.0 -171 -164 0
1.0 -132 -3 0
1.0 -192 -182 0
1.0 33 66 0
1.0 -137 114 0
1.0 -27 197 0
1.0 -189 113 0
1.0 -193 -92 0
1.0 -56 -85 0
1.0 -87 138 0
1.0 -119 -135 0
1.0 -200 -191 0
1.0 -144 -23 0
1.0 -177 150 0
1.0 116 199 0
1.0 133 45 0
1.0 -200 -50 0
1.0 33 -182 0
1.0 -173 -6 0
1.0 197 -103 0
1.0 126 -22 0
1.0 -172 10 0
1.0 8 -74 0
1.0 -119 -156 0
1.0 5 60 0
1.0 41 112 0
1.0 -117 -170 0
1.0 73 -68 0
1.0 -89 134 0
1.0 -143 -94 0
1.0 168 40 0
1.0 196 46 0
1.0 106 -60 0
1.0 -172 41 0
1.0 11 144 0
1.0 11 56 0
1.0 -189 -183 0
1.0 77 107 0
1.0 -147 -171 0
1.0 -17 -134 0
1.0 194 -179 0
1.0 20 28 0
1.0 -172 -55 0
1.0 110 195 0
1.0 177 42 0
1.0 148 111 0
1.0 82 26 0
1.0 159 -178 0
1.0 -157 -89 0
1.0 117 169 0
1.0 23 -119 0
1.0 113 152 0
1.0 -193 -60 0
1.0 170 39 0
1.0 -64 71 0
1.0 -49 169 0
1.0 -57 -91 0
1.0 59 188 0
1.0 106 130 0
1.0 -81 45 0
1.0 104 51 0
1.0 -89 -50 0
1.0 -121 -74 0
1.0 -42 149 0
1.0 39 156 0
1.0 -143 131 0
1.0 60 -194 0
1.0 38 -176 0
1.0 26 -28 0
1.0 77 -140 0
1.0 -13 42 0
1.0 -190 141 0
1.0 -96 23 0
1.0 153 106 0
1.0 -99 -155 0
1.0 130 -167 0
1.0 195 93 0
1.0 33 136 0
1.0 178 -34 0
1.0 -174 51 0
1.0 -74 121 0
1.0 27 -196 0
1.0 150 192 0
1.0 159 -140 0
1.0 32 103 0
1.0 -39 92 0
1.0 -126 8 0
1.0 -59 -178 0
1.0 -99 -78 0
1.0 73 197 0
1.0 -188 -112 0
1.0 51 134 0
1.0 -37 122 0
1.0 13 -56 0
1.0 63 -73 0
1.0 50 -7 0
1.0 84 -10 0
1.0 -6 -124 0
1.0 -35 78 0
1.0 -12 38 0
1.0 -159 -114 0
1.0 -169 12 0
1.0 -84 -147 0
1.0 153 5 0
1.0 -15 156 0
1.0 79 -169 0
1.0 -46 154 0
1.0 -191 -165 0
1.0 -79 27 0
1.0 38 -30 0
1.0 176 -32 0
1.0 -37 137 0
1.0 92 -155 0
1.0 123 -86 0
1.0 39 80 0
1.0 -44 -131 0
1.0 -157 -99 0
1.0 -128 -48 0
1.0 80 -170 0
1.0 -107 -194 0
1.0 -148 38 0
1.0 123 -51 0
1.0 -131 -65 0
1.0 195 -169 0
1.0 -67 -66 0
1.0 114 -60 0
1.0 -30 -126 0
1.0 -119 75 0
1.0 -113 103 0
1.0 -154 175 0
1.0 40 187 0
1.0 -155 156 0
1.0 22 -129 0
1.0 -189 110 0
1.0 -36 -37 0
1.0 112 88 0
1.0 191 -157 0
1.0 132 -56 0
1.0 43 -88 0
1.0 44 189 0
1.0 -118 -33 0
1.0 -143 -128 0
1.0 -164 78 0
1.0 166 -153 0
1.0 -109 159 0
1.0 15 130 0
1.0 18 14 0
1.0 -3 -73 0
1.0 106 125 0
1.0 53 149 0
1.0 27 -159 0
1.0 -111 192 0
1.0 150 -49 0
1.0 178 -69 0
1.0 82 75 0
1.0 148 181 0
1.0 -106 -29 0
1.0 -178 128 0
1.0 -87 -67 0
1.0 58 143 0
1.0 -191 -75 0
1.0 -143 192 0
1.0 -67 19 0
1.0 200 -112 0
1.0 141 -170 0
1.0 -97 -38 0
1.0 -105 -118 0
1.0 -61 196 0
1.0 70 141 0
1.0 132 -184 0
1.0 2 145 0
1.0 -56 -81 0
1.0 -50 -170 0
1.0 -8 -37 0
1.0 154 110 0
1.0 106 -44 0
1.0 -184 -85 0
1.0 -69 24 0
1.0 168 127 0
1.0 8 178 0
1.0 148 -135 0
1.0 171 -133 0
1.0 -43 -142 0
1.0 -185 -4 0
1.0 89 -111 0
1.0 134 -198 0
1.0 -124 -98 0
1.0 -76 144 0
1.0 -78 191 0
1.0 -124 -45 0
1.0 -186 -112 0
1.0 -116 37 0
1.0 -147 22 0
1.0 -19 -187 0
1.0 85 -104 0
1.0 -48 -62 0
1.0 -53 -160 0
1.0 -4 -147 0
1.0 -58 -55 0
1.0 -92 99 0
1.0 -121 -137 0
1.0 124 98 0
1.0 -2 156 0
1.0 -18 149 0
1.0 109 -148 0
1.0 -95 -187 0
1.0 -42 -63 0
1.0 -161 102 0
1.0 38 -89 0
1.0 -186 -102 0
1.0 57 136 0
1.0 -85 -11 0
1.0 -159 190 0
1.0 176 7 0
1.0 -69 130 0
1.0 -31 122 0
1.0 10 -130 0
1.0 -31 199 0
1.0 -135 19 0
1.0 29 -106 0
1.0 95 117 0
1.0 123 -44 0
1.0 173 39 0
1.0 160 -132 0
1.0 -61 101 0
1.0 -99 147 0
1.0 165 -142 0
1.0 -47 -63 0
1.0 179 -19 0
1.0 63 100 0
1.0 138 114 0
1.0 45 -108 0
1.0 -8 -31 0
1.0 -178 -177 0
1.0 -118 -190 0
1.0 -53 116 0
1.0 -135 -118 0
1.0 17 -25 0
1.0 139 -68 0
1.0 176 -118 0
1.0 149 -87 0
1.0 63 -28 0
1.0 -18 5 0
1.0 -121 51 0
1.0 168 -33 0
1.0 -58 -84 0
1.0 -152 -189 0
1.0 -107 69 0
1.0 -156 199 0
1.0 -27 50 0
1.0 -54 -143 0
1.0 194 -14 0
1.0 -47 -82 0
1.0 -165 -82 0
1.0 71 -81 0
1.0 150 -153 0
1.0 -151 -13 0
1.0 62 -121 0
1.0 64 135 0
1.0 148 -119 0
1.0 200 -162 0
1.0 44 -200 0
1.0 81 124 0
1.0 -76 122 0
1.0 135 -57 0
1.0 -178 25 0
1.0 159 -200 0
1.0 -118 -115 0
1.0 77 -200 0
1.0 200 162 0
1.0 -85 -125 0
1.0 -47 -44 0
1.0 -101 191 0
1.0 -16 -87 0
1.0 86 16 0
1.0 -131 182 0
1.0 -182 -200 0
1.0 162 161 0
1.0 85 -171 0
1.0 -15 -193 0
1.0 -184 -88 0
1.0 -174 111 0
1.0 126 54 0
1.0 36 180 0
1.0 -180 -189 0
1.0 -149 59 0
1.0 -29 193 0
1.0 -186 -76 0
1.0 -163 -150 0
1.0 -60 -142 0
1.0 195 55 0
1.0 35 103 0
1.0 -91 44 0
1.0 102 -142 0
1.0 -134 -37 0
1.0 112 130 0
1.0 79 -56 0
1.0 -197 -4 0
1.0 59 164 0
1.0 -66 -68 0
1.0 -112 63 0
1.0 -4 -69 0
1.0 106 117 0
1.0 47 -145 0
1.0 1 -100 0
1.0 -103 -187 0
1.0 150 11 0
1.0 -78 -161 0
1.0 23 169 0
1.0 -38 -147 0
1.0 -64 -21 0
1.0 165 -50 0
1.0 -149 98 0
1.0 84 152 0
1.0 162 67 0
1.0 27 21 0
1.0 190 32 0
1.0 -178 40 0
1.0 -61 127 0
1.0 -176 -186 0
1.0 -84 -153 0
1.0 104 190 0
1.0 -56 49 0
1.0 -70 133 0
1.0 164 -8 0
1.0 -48 -53 0
1.0 -180 -134 0
1.0 119 123 0
1.0 -75 -57 0
1.0 46 -169 0
1.0 -18 147 0
1.0 -80 115 0
1.0 -123 -31 0
1.0 84 167 0
1.0 100 9 0
1.0 132 99 0
1.0 -155 189 0
1.0 -158 -27 0
1.0 174 85 0
1.0 199 -9 0
1.0 40 -81 0
1.0 -47 -168 0
1.0 -177 -4 0
1.0 -103 186 0
1.0 174 -97 0
1.0 -124 160 0
1.0 -44 170 0
1.0 -179 47 0
1.0 -127 -54 0
1.0 -21 -127 0
1.0 -131 86 0
1.0 72 18 0
1.0 -115 148 0
1.0 -107 -84 0
1.0 -54 87 0
1.0 133 156 0
1.0 9 192 0
1.0 118 154 0
